136
10000
2501
4279
2169
104
705
2867
1994
3541
3660
2391
4971
495
1634
3278
2918
203
3469
697
2
4994
1711
4675
3264
977
3140
2590
2423
2763
3185
704
1472
4435
650
2619
4220
2401
660
719
1615
977
2207
1972
2832
4438
3826
4586
2182
613
1295
281
762
3305
20
3875
134
4754
1454
1704
544
3523
3917
2907
1478
276
686
34
3318
2110
2397
2021
1029
2409
1271
4587
3052
360
2371
14
2121
3359
806
444
2474
2641
3640
2694
3203
1507
4425
189
1847
308
678
2611
2084
1714
2013
262
2395
1507
1354
4911
780
4386
4691
2897
3661
718
2994
1478
2084
3937
1382
1521
1362
2250
364
4808
1590
2409
2419
4239
740
2597
1386
3474
4268
454
812
2008
3384
2796
1944
175
2928
3261
